1586.22
0 63 65 67 43 20 21 22 24 25 23 5 0
0 75 1 4 3 7 8 10 26 28 27 47 40 69 66 62 0
0 2 6 9 11 29 49 46 42 41 74 0
0 91 89 88 86 87 90 72 61 64 68 44 45 48 51 50 52 30 0
0 83 84 85 98 13 17 34 32 31 0
0 55 53 57 59 35 33 36 18 99 96 82 0
0 37 39 19 15 14 12 100 97 95 0
0 54 60 38 16 93 92 94 0
0 58 56 80 79 77 73 71 76 78 81 0
0 70 0
